(declare-const a Real)
(declare-const b Real)
(declare-const c Real)
(assert (= (* a b c) 1))
(assert (> a 0))
(assert (> b 0))
(assert (> c 0))
(assert (not (<= (+ (* (pow (+ (* 25 (pow a (/ 5 3))) (* 25 (pow c (/ 5 3)))) (/ -1 3)) (pow (+ (* 25 a (pow c (/ 5 3))) (* 25 b (pow a (/ 5 3)))) (/ 4 3))) (* -25 a (pow c 2)) (* -25 b (pow a 2)) (* -25 c (pow b 2)) (* 25 (pow a (pow 3 -1)) (pow (* b c) (/ 4 3))) (* 25 (pow b (/ 5 3)) (pow c (/ 4 3))) (* 25 (pow b (pow 3 -1)) (pow (* a c) (/ 4 3))) (* (pow 5 (pow 3 -1)) (pow a (/ 4 3)) (pow (+ c (* 4 b)) (/ 5 3))) (* -75 a b c)) 0)))
(check-sat)
(get-model)
(exit)